# Objective value = 95605
x66 1
x67 0
x68 0
x69 0
x70 0
x71 1
x72 0
x73 0
x74 1
x75 1
x76 0
x77 0
x78 1
x79 1
x80 1
x81 1
x82 1
x83 0
x84 0
x85 0
x86 0
x87 0
x88 0
x89 1
x90 1
x91 1
x92 1
x93 0
x94 0
x95 0
x96 1
x97 1
x98 1
x99 1
x100 0
x101 1
x102 0
x103 0
x104 1
x105 1
x106 1
x107 1
x108 0
x109 1
x110 1
x111 0
x112 0
x113 1
x114 1
x115 1
x116 1
x117 0
x118 1
x119 1
x120 1
x121 0
x122 0
x123 1
x124 1
x125 1
x126 1
x127 0
x128 1
x129 1
x130 1
x131 1
x132 1
x133 1
x134 0
x135 0
x136 0
x137 0
x138 1
x139 0
x140 0
x141 0
x142 0
x143 0
x144 0
x145 0
x146 1
x147 1
x148 1
x149 1
x150 0
x151 1
x152 1
x153 1
x154 1
x155 1
x156 0
x157 0
x158 0
x159 1
x160 1
x161 1
x162 1
x163 0
x164 1
x165 1
x166 1
x167 1
x168 1
x169 0
x170 1
x171 1
x172 1
x173 0
x174 0
x175 0
x176 0
x177 1
x178 0
x179 0
x180 0
x181 0
x182 0
x183 1
x184 0
x185 0
x186 0
x187 0
x188 1
x189 1
x190 1
x191 1
x192 0
x193 1
x194 1
x195 1
x196 1
x197 1
x198 0
x199 1
x200 1
x201 0
x202 0
x203 0
x204 1
x205 1
x206 1
x207 1
x208 1
x209 0
x210 0
x211 1
x212 1
x213 1
x214 1
x215 1
x216 1
x217 1
x218 1
x219 0
x220 0
x221 0
x222 0
x223 1
x224 0
x225 0
x226 0
x227 0
x228 1
x229 1
x230 1
x231 0
x232 1
x233 1
x234 1
x235 0
x236 0
x237 1
x238 0
x239 1
x240 1
x241 1
x242 1
x243 1
x244 1
x245 0
x246 1
x247 0
x248 1
x249 0
x250 1
x251 1
x252 1
x253 1
x254 1
x255 1
x256 0
x257 1
x258 1
x259 0
x260 1
x261 0
x262 1
x263 1
x264 1
x265 0
x266 1
x267 1
x268 0
x269 1
x270 1
x271 1
x272 1
x273 0
x274 1
x275 0
x276 0
x277 1
x278 0
x279 0
x280 0
x281 1
x282 0
x283 0
x284 0
x285 0
x286 0
x287 0
x288 1
x289 1
x290 1
x291 1
x292 0
x293 1
x294 1
x295 0
x296 1
x297 1
x298 1
x299 1
x300 0
x301 1
x302 0
x303 1
x304 0
x305 0
x306 0
x307 1
x308 0
x309 0
x310 1
x311 0
x312 0
x313 0
x314 0
x315 1
x316 0
x317 0
x318 1
x319 1
x320 1
x321 1
x322 1
x323 0
x324 1
x325 1
x326 0
x327 1
x328 1
x329 1
x330 1
x331 0
x332 1
x333 0
x334 0
x335 1
x336 1
x337 1
x338 1
x339 1
x340 0
x341 1
x342 1
x343 0
x344 1
x345 1
x346 1
x347 1
x348 0
x349 1
x350 0
x351 1
x352 1
x353 1
x354 0
x355 0
x356 0
x357 1
x358 0
x359 0
x360 0
x361 1
x362 0
x363 0
x364 0
x365 0
x366 1
x367 0
x368 1
x369 0
x370 0
x371 0
x372 1
x373 0
x374 1
x375 1
x376 0
x377 1
x378 1
x379 1
x380 0
x381 1
x382 1
x383 1
x384 1
x385 0
x386 1
x387 0
x388 1
x389 1
x390 0
x391 0
x392 1
x393 1
x394 1
x395 1
x396 0
x397 1
x398 1
x399 1
x400 0
x401 1
x402 1
x403 1
x404 1
x405 0
x406 1
x407 0
x408 1
x409 1
x410 0
x411 1
x412 0
x413 1
x414 1
x415 1
x416 1
x417 0
x418 1
x419 1
x420 1
x421 0
x422 1
x423 1
x424 1
x425 1
x426 0
x427 1
x428 0
x429 1
x430 1
x431 0
x432 1
x433 1
x434 0
x435 0
x436 1
x437 1
x438 1
x439 1
x440 1
x441 1
x442 0
x443 1
x444 1
x445 1
x446 1
x447 0
x448 0
x449 0
x450 1
x451 0
x452 0
x453 1
x454 0
x455 0
x456 0
x457 0
x458 0
x459 1
x460 1
x461 1
x462 1
x463 1
x464 1
x465 0
x466 1
x467 1
x468 1
x469 0
x470 0
x471 0
x472 1
x473 1
x474 1
x475 1
x476 1
x477 1
x478 0
x479 1
x480 0
x481 1
x482 0
x483 1
x484 1
x485 1
x486 0
x487 1
x488 0
x489 0
x490 0
x491 0
x492 0
x493 0
x494 1
x495 0
x496 1
x497 0
x498 0
x499 0
x500 1
x501 1
x502 0
x503 1
x504 1
x505 1
x506 1
x507 1
x508 1
x509 0
x510 1
x511 0
x512 1
x513 1
x514 0
x515 0
x516 1
x517 1
x518 0
x519 1
x520 1
x521 0
x522 1
x523 1
x524 1
x525 0
x526 1
x527 0
x528 1
x529 1
x530 0
x531 1
x532 0
x533 1
x534 1
x535 0
x536 1
x537 1
x538 1
x539 1
x540 1
x541 1
x542 0
x543 1
x544 0
x545 1
x546 1
x547 0
x548 1
x549 1
x550 0
x551 1
x552 1
x553 1
x554 0
x555 1
x556 1
x557 0
x558 1
x559 1
x560 0
x561 1
x562 0
x563 1
x564 1
x565 0
x566 1
x567 1
x568 1
x569 0
x570 1
x571 1
x572 1
x573 0
x574 1
x575 1
x576 0
x577 1
x578 1
x579 1
x580 1
x581 0
x582 1
x583 1
x584 0
x585 1
x586 1
x587 1
x588 1
x589 1
x590 0
x591 0
x592 0
x593 1
x594 1
x595 0
x596 1
x597 0
x598 0
x599 0
x600 0
x601 1
x602 0
x603 0
x604 1
x605 0
x606 0
x607 0
x608 0
x609 0
x610 0
x611 1
x612 1
x613 1
x614 0
x615 1
x616 1
x617 0
x618 1
x619 1
x620 1
x621 1
x622 0
x623 1
x624 1
x625 0
x626 1
x627 1
x628 1
x629 1
x630 1
x631 0
x632 0
x633 1
x634 1
x635 1
x636 0
x637 1
x638 1
x639 0
x640 1
x641 1
x642 1
x643 1
x644 0
x645 1
x646 1
x647 0
x648 1
x649 1
x650 1
x651 1
x652 1
x653 0
x654 1
x655 0
x656 1
x657 1
x658 1
x659 0
x660 1
x661 0
x662 0
x663 1
x664 1
x665 1
x666 1
x667 0
x668 1
x669 1
x670 0
x671 1
x672 1
x673 1
x674 1
x675 1
x676 0
x677 1
x678 1
x679 0
x680 1
x681 1
x682 1
x683 0
x684 1
x685 1
x686 0
x687 1
x688 1
x689 1
x690 1
x691 0
x692 1
x693 1
x694 0
x695 1
x696 1
x697 1
x698 1
x699 1
x700 0
x701 1
x702 1
x703 1
x704 1
x705 1
x706 0
x707 0
x708 1
x709 0
x710 0
x711 1
x712 0
x713 0
x714 0
x715 0
x716 1
x717 0
x718 0
x719 1
x720 0
x721 0
x722 0
x723 0
x724 0
x725 1
x726 0
x727 0
x728 0
x729 0
x730 0
x731 0
x732 1
x733 1
x734 1
x735 1
x736 1
x737 1
x738 0
x739 1
x740 1
x741 1
x742 0
x743 1
x744 1
x745 1
x746 1
x747 0
x748 0
x749 1
x750 1
x751 1
x752 0
x753 1
x754 1
x755 0
x756 1
x757 1
x758 1
x759 0
x760 1
x761 1
x762 1
x763 1
x764 1
x765 0
x766 0
x767 1
x768 1
x769 1
x770 1
x771 1
x772 1
x773 0
x774 1
x775 1
x776 1
x777 0
x778 1
x779 1
x780 0
x781 1
x782 1
x783 1
x784 1
x785 1
x786 0
x787 0
x788 0
x789 0
x790 0
x791 0
x792 1
x793 0
x794 1
x795 0
x796 1
x797 0
x798 0
x799 0
x800 1
x801 0
x802 0
x803 0
x804 0
x805 0
x806 1
x807 0
x808 1
x809 1
x810 1
x811 1
x812 1
x813 1
x814 0
x815 0
x816 1
x817 1
x818 1
x819 1
x820 1
x821 1
x822 1
x823 1
x824 0
x825 0
x826 1
x827 1
x828 0
x829 1
x830 1
x831 1
x832 1
x833 1
x834 1
x835 0
x836 0
x837 1
x838 1
x839 1
x840 1
x841 1
x842 1
x843 1
x844 1
x845 0
x846 1
x847 1
x848 0
x849 0
x850 1
x851 0
x852 0
x853 1
x854 0
x855 0
x856 0
x857 1
x858 1
x859 0
x860 0
x861 0
x862 1
x863 0
x864 0
x865 0
x866 0
x867 1
x868 0
x869 0
x870 0
x871 1
x872 1
x873 0
x874 1
x875 1
x876 1
x877 1
x878 1
x879 1
x880 0
x881 0
x882 1
x883 1
x884 1
x885 1
x886 0
x887 1
x888 1
x889 1
x890 0
x891 1
x892 1
x893 0
x894 1
x895 0
x896 0
x897 0
x898 1
x899 0
x900 0
x901 1
x902 0
x903 0
x904 1
x905 0
x906 1
x907 0
x908 0
x909 1
x910 0
x911 0
x912 0
x913 0
x914 1
x915 0
x916 0
x917 1
x918 0
x919 0
x920 1
x921 1
x922 1
x923 0
x924 1
x925 1
x926 0
x927 1
x928 1
x929 1
x930 0
x931 1
x932 1
x933 1
x934 0
x935 1
x936 1
x937 1
x938 1
x939 0
x940 1
x941 1
x942 0
x943 1
x944 0
x945 0
x946 1
x947 1
x948 1
x949 0
x950 0
x951 1
x952 0
x953 1
x954 1
x955 1
x956 1
x957 1
x958 1
x959 1
x960 0
x961 1
x962 1
x963 1
x964 1
x965 0
x966 1
x967 1
x968 0
x969 1
x970 0
x971 1
x972 0
x973 1
x974 1
x975 1
x976 0
x977 1
x978 1
x979 0
x980 1
x981 1
x982 1
x983 1
x984 1
x985 1
x986 1
x987 0
x988 1
x989 1
x990 1
x991 1
x992 0
x993 1
x994 1
x995 0
x996 1
x997 0
x998 1
x999 1
x1000 0
x1001 1
x1002 1
x1003 1
x1004 0
x1005 1
x1006 1
x1007 0
x1008 1
x1009 1
x1010 1
x1011 1
x1012 0
x1013 1
x1014 1
x1015 1
x1016 0
x1017 1
x1018 1
x1019 1
x1020 0
x1021 1
x1022 1
x1023 0
x1024 1
x1025 0
x1026 1
x1027 1
x1028 1
x1029 1
x1030 0
x1031 0
x1032 0
x1033 1
x1034 0
x1035 1
x1036 1
x1037 0
x1038 0
x1039 0
x1040 1
x1041 0
x1042 0
x1043 0
x1044 0
x1045 1
x1046 0
x1047 0
x1048 0
x1049 1
x1050 0
x1051 0
x1052 1
x1053 0
x1054 1
x1055 0
x1056 0
x1057 0
x1058 0
x1059 0
x1060 1
x1061 1
x1062 1
x1063 0
x1064 1
x1065 1
x1066 0
x1067 1
x1068 1
x1069 1
x1070 1
x1071 1
x1072 1
x1073 1
x1074 1
x1075 0
x1076 1
x1077 1
x1078 1
x1079 0
x1080 1
x1081 1
x1082 0
x1083 1
x1084 0
x1085 1
x1086 1
x1087 1
x1088 1
x1089 0
x1090 0
x1091 0
x1092 1
x1093 1
x1094 0
x1095 1
x1096 1
x1097 0
x1098 1
x1099 1
x1100 1
x1101 1
x1102 1
x1103 1
x1104 1
x1105 1
x1106 0
x1107 1
x1108 1
x1109 1
x1110 0
x1111 1
x1112 1
x1113 0
x1114 1
x1115 0
x1116 1
x1117 1
x1118 1
x1119 1
x1120 0
x1121 1
x1 1
x2 1
x3 0
x4 0
x5 0
x6 0
x7 1
x8 0
x9 0
x10 0
x11 0
x12 0
x13 1
x14 0
x15 0
x16 1
x17 0
x18 0
x19 0
x20 1
x21 0
x22 0
x23 0
x24 0
x25 1
x26 0
x27 1
x28 0
x29 0
x30 1
x31 0
x32 0
x33 0
x34 0
x35 1
x36 0
x37 0
x38 1
x39 0
x40 0
x41 0
x42 0
x43 0
x44 1
x45 0
x46 0
x47 0
x48 0
x49 1
x50 0
x51 0
x52 0
x53 1
x54 0
x55 0
x56 1
x57 0
x58 1
x59 0
x60 0
x61 0
x62 0
x63 1
x64 0
x65 0
